p tw 247 270
1 2
2 113
3 14
4 5
5 6
6 7
7 8
8 9
9 10
10 11
11 12
12 13
13 15
14 25
15 91
16 17
17 18
18 19
19 20
19 33
20 21
21 22
22 23
23 24
24 26
24 33
25 36
26 27
27 28
28 29
29 30
30 31
31 32
32 91
33 34
34 35
35 37
36 47
37 38
37 51
38 39
39 40
40 41
41 42
42 43
42 51
43 44
44 45
45 46
46 48
47 58
48 49
49 50
50 91
51 52
52 53
53 54
54 55
55 56
55 115
56 57
57 59
58 69
59 60
60 61
60 115
61 62
62 63
63 64
64 65
65 66
65 103
66 67
66 70
67 68
68 72
69 80
70 71
71 72
72 73
73 74
74 75
75 76
76 77
77 78
78 79
79 81
80 91
81 82
82 83
83 84
84 85
85 86
86 87
87 88
88 89
88 92
89 90
90 94
91 102
92 93
93 94
94 95
95 96
96 97
97 98
98 99
99 100
100 101
101 109
102 114
103 104
104 105
105 106
106 107
107 108
108 109
109 110
110 111
111 112
112 91
113 171
114 125
115 116
116 117
117 118
117 126
118 119
119 120
120 121
121 122
122 123
123 124
124 135
125 136
126 127
127 128
128 129
128 135
129 130
130 131
131 132
132 133
133 134
134 135
135 137
136 147
137 138
138 139
139 140
140 141
140 149
141 142
142 143
143 144
144 145
145 146
146 148
147 158
148 91
149 150
150 151
151 152
151 91
152 153
153 154
154 155
155 156
156 157
157 159
158 166
159 91
160 161
161 162
161 164
162 163
163 164
164 165
166 167
167 168
168 169
169 170
169 160
170 172
171 182
172 173
173 174
174 175
175 176
176 177
177 178
177 199
178 179
179 180
180 181
181 183
182 193
183 184
184 185
185 186
186 187
187 188
188 189
189 190
190 191
191 192
192 194
193 204
194 195
195 196
196 197
197 198
198 199
199 200
200 201
201 202
201 208
202 203
202 230
203 205
204 215
205 206
206 207
207 208
207 230
208 209
209 210
209 227
210 211
211 212
212 213
213 214
214 216
215 226
216 217
217 218
218 219
219 220
220 221
221 222
222 223
223 224
224 225
225 227
226 237
227 228
228 229
229 91
230 231
231 232
232 233
232 239
233 234
233 16
234 235
235 236
236 238
237 3
238 239
238 16
239 240
240 241
240 12
241 242
242 243
243 244
244 245
245 246
246 247
247 4
